100 8
231 667
507 632
788 667
154 267
778 293
630 189
561 631
396 657
811 343
599 270
115 804
736 668
472 648
469 481
491 552
529 897
125 800
156 191
350 581
564 710
795 632
756 874
115 548
175 496
320 313
503 734
718 374
566 131
828 635
626 895
440 753
256 873
667 869
897 597
625 791
872 794
489 685
403 477
768 871
611 835
460 734
90 255
764 768
410 565
454 371
563 321
664 817
752 376
686 324
421 451
376 445
632 793
24 282
603 183
834 828
825 158
527 731
432 766
232 246
337 598
95 903
513 491
834 900
701 440
497 324
538 837
859 887
532 707
246 609
340 222
395 415
442 685
418 664
590 317
754 602
564 724
668 410
586 651
71 560
93 836
90 690
814 651
719 388
427 653
481 511
469 636
477 546
683 257
541 755
304 707
61 525
502 863
502 744
455 485
154 843
674 207
394 428
746 608
507 785
751 438
